(declare-fun temp559_1 () (_ BitVec 64))
(declare-fun var791270 () (_ BitVec 64))
(declare-fun temp559_2 () (_ BitVec 64))
(declare-fun temp559_3 () (_ BitVec 64))
(declare-fun var791287 () (_ BitVec 64))
(declare-fun var791267 () (_ BitVec 64))
(declare-fun var732381 () (_ BitVec 64))
(declare-fun var1060089 () (_ BitVec 64))
(declare-fun temp559_4 () (_ BitVec 64))
(declare-fun ARGNAME_keepdim_NAMEEND () (_ BitVec 64))
(declare-fun temp559_6 () (_ BitVec 64))
(declare-fun temp559_5 () (_ BitVec 64))
(assert (= temp559_1 #x0000000000000001))
(assert (= var791270 temp559_1))
(assert (= temp559_2 #x0000000000000001))
(assert (= var791270 temp559_2))
(assert (= temp559_3 #x0000000000000004))
(assert (= var791287 temp559_3))
(assert (= var791267 var791287))
(assert (= var732381 var791267))
(assert (= var1060089 var732381))
(assert (= temp559_4 #x0000000000000001))
(assert (= ARGNAME_keepdim_NAMEEND temp559_4))
(assert (= temp559_6 #x0000000000000001))
(assert (= temp559_5 temp559_6))
(model-add temp559_1 () (_ BitVec 64) #x0000000000000001)
(model-add var791270 () (_ BitVec 64) #x0000000000000001)
(model-add temp559_2 () (_ BitVec 64) #x0000000000000001)





